0 0 0 0
0 1 0 3
0 2 0 0
0 3 0 0
0 4 0 4
0 5 0 47
0 6 0 9
0 7 0 10
0 8 0 5
0 9 0 3
0 10 0 19
0 11 0 27
0 12 0 22
0 13 0 15
0 14 0 19
0 15 0 29
0 16 0 32
0 17 0 43
0 18 0 33
0 19 0 41
0 20 0 36
0 21 0 5
0 22 0 5
0 23 0 15
0 24 0 65
0 25 0 29
0 26 0 19
0 27 0 28
0 28 0 42
0 29 0 57
0 30 0 21
0 31 0 34
0 32 0 78
0 33 0 33
0 34 0 47
0 35 0 65
0 36 0 43
0 37 0 51
0 38 0 60
0 39 0 52
0 40 0 72
0 41 0 35
0 42 0 66
0 43 0 51
0 44 0 65
0 45 0 102
0 46 0 88
0 47 0 69
0 48 0 78
0 49 0 73
0 50 0 82
0 51 0 79
0 52 0 99
0 53 0 90
0 54 0 96
0 55 0 105
0 56 0 99
0 57 0 90
0 58 0 72
0 59 0 109
0 60 0 111
0 61 0 115
